(declare-const conc0 Real)
(assert (and (>= conc0 0) (<= conc0 100)))
(declare-const conc1 Real)
(assert (and (>= conc1 0) (<= conc1 100)))
(declare-const conc2 Real)
(assert (and (>= conc2 0) (<= conc2 100)))
(declare-const conc3 Real)
(assert (and (>= conc3 0) (<= conc3 100)))
(declare-const conc4 Real)
(assert (and (>= conc4 0) (<= conc4 100)))
(declare-const conc5 Real)
(assert (and (>= conc5 0) (<= conc5 100)))
(declare-const conc6 Real)
(assert (and (>= conc6 0) (<= conc6 100)))
(declare-const conc7 Real)
(assert (and (>= conc7 0) (<= conc7 100)))
(declare-const conc8 Real)
(assert (and (>= conc8 0) (<= conc8 100)))
(declare-const conc9 Real)
(assert (and (>= conc9 0) (<= conc9 100)))
(declare-const conc10 Real)
(assert (and (>= conc10 0) (<= conc10 100)))
(declare-const conc11 Real)
(assert (and (>= conc11 0) (<= conc11 100)))
(declare-const conc12 Real)
(assert (and (>= conc12 0) (<= conc12 100)))
(declare-const conc13 Real)
(assert (and (>= conc13 0) (<= conc13 100)))
(declare-const conc14 Real)
(assert (and (>= conc14 0) (<= conc14 100)))
(declare-const conc15 Real)
(assert (and (>= conc15 0) (<= conc15 100)))
(declare-const conc16 Real)
(assert (and (>= conc16 0) (<= conc16 100)))
(declare-const conc17 Real)
(assert (and (>= conc17 0) (<= conc17 100)))
(declare-const conc18 Real)
(assert (and (>= conc18 0) (<= conc18 100)))
(declare-const conc19 Real)
(assert (and (>= conc19 0) (<= conc19 100)))
(declare-const conc20 Real)
(assert (and (>= conc20 0) (<= conc20 100)))
(declare-const conc21 Real)
(assert (and (>= conc21 0) (<= conc21 100)))
(declare-const conc22 Real)
(assert (and (>= conc22 0) (<= conc22 100)))
(declare-const conc23 Real)
(assert (and (>= conc23 0) (<= conc23 100)))
(declare-const conc24 Real)
(assert (and (>= conc24 0) (<= conc24 100)))
(declare-const conc25 Real)
(assert (and (>= conc25 0) (<= conc25 100)))
(declare-const conc26 Real)
(assert (and (>= conc26 0) (<= conc26 100)))
(declare-const conc27 Real)
(assert (and (>= conc27 0) (<= conc27 100)))
(declare-const conc28 Real)
(assert (and (>= conc28 0) (<= conc28 100)))
(declare-const conc29 Real)
(assert (and (>= conc29 0) (<= conc29 100)))
(declare-const conc30 Real)
(assert (and (>= conc30 0) (<= conc30 100)))
(declare-const conc31 Real)
(assert (and (>= conc31 0) (<= conc31 100)))
(declare-const conc32 Real)
(assert (and (>= conc32 0) (<= conc32 100)))
(declare-const conc33 Real)
(assert (and (>= conc33 0) (<= conc33 100)))
(declare-const conc34 Real)
(assert (and (>= conc34 0) (<= conc34 100)))
(declare-const conc35 Real)
(assert (and (>= conc35 0) (<= conc35 100)))
(declare-const conc36 Real)
(assert (and (>= conc36 0) (<= conc36 100)))
(declare-const conc37 Real)
(assert (and (>= conc37 0) (<= conc37 100)))
(declare-const conc38 Real)
(assert (and (>= conc38 0) (<= conc38 100)))
(declare-const conc39 Real)
(assert (and (>= conc39 0) (<= conc39 100)))
(declare-const conc40 Real)
(assert (and (>= conc40 0) (<= conc40 100)))
(declare-const conc41 Real)
(assert (and (>= conc41 0) (<= conc41 100)))
(declare-const conc42 Real)
(assert (and (>= conc42 0) (<= conc42 100)))
(declare-const conc43 Real)
(assert (and (>= conc43 0) (<= conc43 100)))
(declare-const conc44 Real)
(assert (and (>= conc44 0) (<= conc44 100)))
(declare-const conc45 Real)
(assert (and (>= conc45 0) (<= conc45 100)))
(declare-const conc46 Real)
(assert (and (>= conc46 0) (<= conc46 100)))
(declare-const conc47 Real)
(assert (and (>= conc47 0) (<= conc47 100)))
(declare-const conc48 Real)
(assert (and (>= conc48 0) (<= conc48 100)))
(declare-const conc49 Real)
(assert (and (>= conc49 0) (<= conc49 100)))
(declare-const conc50 Real)
(assert (and (>= conc50 0) (<= conc50 100)))
(declare-const conc51 Real)
(assert (and (>= conc51 0) (<= conc51 100)))
(declare-const conc52 Real)
(assert (and (>= conc52 0) (<= conc52 100)))
(declare-const conc53 Real)
(assert (and (>= conc53 0) (<= conc53 100)))
(declare-const conc54 Real)
(assert (and (>= conc54 0) (<= conc54 100)))
(declare-const conc55 Real)
(assert (and (>= conc55 0) (<= conc55 100)))
(declare-const conc56 Real)
(assert (and (>= conc56 0) (<= conc56 100)))
(declare-const conc57 Real)
(assert (and (>= conc57 0) (<= conc57 100)))
(declare-const conc58 Real)
(assert (and (>= conc58 0) (<= conc58 100)))
(declare-const conc59 Real)
(assert (and (>= conc59 0) (<= conc59 100)))
(declare-const conc60 Real)
(assert (and (>= conc60 0) (<= conc60 100)))
(declare-const conc61 Real)
(assert (and (>= conc61 0) (<= conc61 100)))
(declare-const conc62 Real)
(assert (and (>= conc62 0) (<= conc62 100)))
(declare-const conc63 Real)
(assert (and (>= conc63 0) (<= conc63 100)))
(declare-const conc64 Real)
(assert (and (>= conc64 0) (<= conc64 100)))
(declare-const conc65 Real)
(assert (and (>= conc65 0) (<= conc65 100)))
(declare-const conc66 Real)
(assert (and (>= conc66 0) (<= conc66 100)))
(declare-const conc67 Real)
(assert (and (>= conc67 0) (<= conc67 100)))
(declare-const conc68 Real)
(assert (and (>= conc68 0) (<= conc68 100)))
(declare-const conc69 Real)
(assert (and (>= conc69 0) (<= conc69 100)))
(declare-const conc70 Real)
(assert (and (>= conc70 0) (<= conc70 100)))
(declare-const conc71 Real)
(assert (and (>= conc71 0) (<= conc71 100)))
(declare-const conc72 Real)
(assert (and (>= conc72 0) (<= conc72 100)))
(declare-const conc73 Real)
(assert (and (>= conc73 0) (<= conc73 100)))
(declare-const conc74 Real)
(assert (and (>= conc74 0) (<= conc74 100)))
(declare-const conc75 Real)
(assert (and (>= conc75 0) (<= conc75 100)))
(declare-const conc76 Real)
(assert (and (>= conc76 0) (<= conc76 100)))
(declare-const coef19 Real)
(assert (= coef19 (- (* 0.540589 conc0 conc10) (* 0.010223 conc30))))
(declare-const coef31 Real)
(assert (= coef31 (- (* 0.222467 conc1 conc30) (* 0.003072 conc39))))
(declare-const coef114 Real)
(assert (= coef114 (- (* 0.234275 conc0 conc39) (* 0.004248 conc74))))
(declare-const coef115 Real)
(assert (= coef115 (- (* 0.960565 conc6 conc30) (* 0.730100 conc74))))
(assert (> (+ (- coef19) (- coef114) 0) 0.000100))
(assert (> (+ coef19 (- coef31) (- coef115) 0) 0.000100))
(assert (> (+ coef31 (- coef114) 0) 0.000100))
(assert (> (+ coef114 coef115 0) 0.000100))
(declare-const coef11 Real)
(assert (= coef11 (- (* 0.838793 conc1 conc17) (* 0.011872 conc24))))
(declare-const coef112 Real)
(assert (= coef112 (- (* 0.561045 conc6 conc24) (* 0.376908 conc73))))
(declare-const coef113 Real)
(assert (= coef113 (- (* 0.412764 conc1 conc47) (* 0.004637 conc73))))
(assert (> (+ (- coef11) (- coef31) (- coef113) 0) 0.000100))
(assert (> (+ (- coef112) (- coef115) 0) 0.000100))
(assert (> (+ coef11 (- coef112) 0) 0.000100))
(assert (> (+ coef31 (- coef114) 0) 0.000100))
(assert (> (+ coef112 coef113 0) 0.000100))
(assert (> (+ coef114 coef115 0) 0.000100))
(check-sat)
(get-model)
